NAME 
ROWS
 N  OBJ
 L  R0      
 L  R1      
 E  R2      
 E  R3      
 E  R4      
 E  R5      
 E  R6      
COLUMNS
    MARKER    'MARKER'                 'INTORG'
    I0(5)     OBJ       -137
    I0(5)     R0        -151
    I0(5)     R1        44
    I0(5)     R2        17
    I0(5)     R3        1
    I0(5)     R6        1
    I1(4)     OBJ       -99
    I1(4)     R0        111
    I1(4)     R1        199
    I1(4)     R3        13
    I1(4)     R6        1
    MARKER    'MARKER'                 'INTEND'
    C2(6)     OBJ       4
    C2(6)     R0        -4
    C2(6)     R1        9
    C2(6)     R2        12
    C2(6)     R3        2
    C2(6)     R4        5
    C2(6)     R5        18
    C3(6)     OBJ       4
    C3(6)     R0        1
    C3(6)     R1        2
    C3(6)     R2        3
    C3(6)     R3        13
    C3(6)     R4        1
    C3(6)     R5        13
    C4(4)     R0        -9
    C4(4)     R1        1
    C4(4)     R4        19
    C4(4)     R5        10
    C5(1)     R2        1
    C6(1)     R3        1
    C7(1)     R4        1
    C8(1)     R5        1
    C9(1)     R6        1
RHS
    RHS1      R2        62
    RHS1      R3        87
    RHS1      R4        79
    RHS1      R5        50
BOUNDS
 UP BND1      I0(5)     1
 UP BND1      I1(4)     1
ENDATA
